================================================================================
MUSIC STREAMING RETENTION OPTIMIZATION
Your 75,001 Customer Dataset
================================================================================

📊 DATASET CHARACTERISTICS
Sample: 300 customers (demo) | Full dataset: 75,001 customers
Churn probability: 0.013 - 0.801
CLV (2-year): $102 - $698
Total at-risk value: $23,300

🎯 SEGMENTATION
value_tier  low  med  high
risk                      
low          51   57    65
med          32   41    52
high          0    0     2

💼 RETENTION ACTIONS (Music Streaming)
 id               name channel  cost  uplift   eligible
  0          No Action    none     0    0.00        all
  1 Personalized Email   email     2    0.08        all
  2       20% Discount   email    20    0.15        all
  3      Premium Trial  in_app    10    0.25       Free
  4     Retention Call    call    50    0.30 high_value
  5        VIP Service    call   100    0.40 high_value

⚠️ Uplift values are ESTIMATES - must calibrate via A/B tests!

🎯 WEEKLY OPERATIONAL CONSTRAINTS
Budget: $5,000
Email capacity: 200
Call capacity: 30
Min high-risk coverage: 60%

================================================================================
GUROBI OPTIMIZATION
================================================================================
Restricted license - for non-production use only - expires 2026-11-23
✓ Built eligibility matrix: 1,216 customer-action pairs
⚙️ Setting objective: maximize p × u × v - c
⚙️ Adding constraints...

🚀 Solving...

Gurobi Optimizer version 12.0.3 build v12.0.3rc0 (linux64 - "Amazon Linux 2023.7.20250623")

CPU model: Intel(R) Xeon(R) Processor @ 2.50GHz, instruction set [SSE2|AVX|AVX2]
Thread count: 2 physical cores, 2 logical processors, using up to 2 threads

Optimize a model with 304 rows, 1216 columns and 2978 nonzeros
Model fingerprint: 0x8ff38e09
Variable types: 0 continuous, 1216 integer (1216 binary)
Coefficient statistics:
  Matrix range     [1e+00, 1e+02]
  Objective range  [2e-02, 1e+02]
  Bounds range     [1e+00, 1e+00]
  RHS range        [1e+00, 5e+03]
Found heuristic solution: objective 1176.7464215
Presolve removed 304 rows and 1216 columns
Presolve time: 0.04s
Presolve: All rows and columns removed

Explored 0 nodes (0 simplex iterations) in 0.12 seconds (0.00 work units)
Thread count was 1 (of 2 available processors)

Solution count 2: 1509.36 1176.75 

Optimal solution found (tolerance 1.00e-04)
Best objective 1.509361787465e+03, best bound 1.509361787465e+03, gap 0.0000%
================================================================================
✓ OPTIMAL SOLUTION
================================================================================
Expected Net Value: $1,509.36

📊 KEY PERFORMANCE INDICATORS
--------------------------------------------------------------------------------
Customers Treated:           235
Total Spend:                 $1,310.00
Expected Churn Reduction:    9.1 customers
Expected Retained CLV:       $2,819.36
Net Value (CLV - Cost):      $1,509.36
ROI:                         115.2%

📋 TREATMENT PLAN BY ACTION
--------------------------------------------------------------------------------
            Action  Count  Cost  Retained CLV  Net Value
Personalized Email    200   400   1369.429069 969.429069
    Retention Call     14   700   1144.653286 444.653286
     Premium Trial     21   210    305.279433  95.279433

🎯 TREATMENT BY RISK SEGMENT
--------------------------------------------------------------------------------
Risk  Count  Cost  Retained CLV   Net Value
high      2   100    195.969379   95.969379
 low    108   216    545.107383  329.107383
 med    125   994   2078.285026 1084.285026

🏆 TOP 10 HIGHEST IMPACT CUSTOMERS
--------------------------------------------------------------------------------
 customer_id subscription        p        clv         action  net_value
      200067       Family 0.801473 435.382797 Retention Call  54.684294
      200196       Family 0.514310 661.278902 Retention Call  52.030644
      200207       Family 0.529692 578.281197 Retention Call  41.893283
      200193       Family 0.723903 420.337449 Retention Call  41.285085
      200010       Family 0.543467 552.763093 Retention Call  40.122518
      200298       Family 0.472862 601.794730 Retention Call  35.369773
      200189       Family 0.615752 442.667735 Retention Call  31.772060
      200201       Family 0.464165 573.382129 Retention Call  29.843102
      200277       Family 0.514303 480.204843 Retention Call  24.091167
      200160       Family 0.386608 611.979738 Retention Call  20.978800

🔒 CONSTRAINT STATUS
--------------------------------------------------------------------------------
• email_cap: BINDING
  → Email capacity maxed. Expand or shift to other channels.

🧪 EXPERIMENT RECOMMENDATION
--------------------------------------------------------------------------------
Treated group: 209 customers
Holdout group: 26 customers (DO NOT TREAT)

Weekly measurement:
  1. Track churn rates: treated vs holdout
  2. Calculate actual uplift per action
  3. Update action catalog with real uplifts
  4. Re-run optimization weekly

================================================================================
NEXT STEPS FOR YOUR 75K DATASET
================================================================================

✓ This demo shows the complete workflow with 300 customers
✓ The model structure is production-ready for 75,001 customers

📝 To scale to your full dataset:
  1. Replace the simulated data with your actual churn probabilities
  2. Use your real subscription types and CLV estimates
  3. Define your actual action catalog with cost estimates
  4. Set your operational constraints (budget, capacity)
  5. Run optimization (Gurobi handles 75K+ efficiently)

💡 Formula: Model maximizes Σ (p × u × v - c) for selected actions
   where p=churn risk, u=uplift, v=CLV, c=cost